
--- Job IEEE_9_BUS.gms Start 02/01/26 19:36:02 24.1.3 r41464 WEX-VS8 x86/MS Windows
GAMS 24.1.3   Copyright (C) 1987-2013 GAMS Development. All rights reserved
Licensee: Gary Goldstein                                 G010614:2121CA-WIN
          Decision Ware, Inc.                                        DC2807
--- Starting compilation
--- IEEE_9_BUS.gms(7) 2 Mb
--- .IEEE9bus_input_FINAL.DAT(189) 3 Mb
--- IEEE_9_BUS.gms(312) 3 Mb
--- Starting execution: elapsed 0:00:00.054
--- IEEE_9_BUS.gms(395) 4 Mb
--- Generating MIP model Slave_GT
--- IEEE_9_BUS.gms(399) 4 Mb
--- LOOPS K = 1
---   7 rows  7 columns  13 non-zeroes
---   2 discrete-columns
--- Executing CPLEX: elapsed 0:00:00.157

IBM ILOG CPLEX   24.1.3 r41464 Released Jul 26, 2013 VS8 x86/MS Windows       
Cplex 12.5.1.0

Reading data...
Starting Cplex...
Tried aggregator 1 time.
MIP Presolve eliminated 7 rows and 7 columns.
All rows and columns eliminated.
Presolve time = 0.00 sec. (0.00 ticks)

Root node processing (before b&c):
  Real time             =    0.00 sec. (0.01 ticks)
Sequential b&c:
  Real time             =    0.00 sec. (0.00 ticks)
                          ------------
Total (root+branch&cut) =    0.00 sec. (0.01 ticks)
MIP status(101): integer optimal solution
Cplex Time: 0.00sec (det. 0.01 ticks)
Fixing integer variables, and solving final LP...
Tried aggregator 1 time.
LP Presolve eliminated 7 rows and 7 columns.
All rows and columns eliminated.
Presolve time = 0.00 sec. (0.00 ticks)
Fixed MIP status(1): optimal
Cplex Time: 0.02sec (det. 0.00 ticks)

Proven optimal solution.

MIP Solution:        -1900.000000    (0 iterations, 0 nodes)
Final Solve:         -1900.000000    (0 iterations)

Best possible:       -1900.000000
Absolute gap:            0.000000
Relative gap:            0.000000

--- Restarting execution
--- IEEE_9_BUS.gms(399) 0 Mb
--- Reading solution for model Slave_GT
--- Executing after solve: elapsed 0:00:00.497
--- IEEE_9_BUS.gms(395) 3 Mb
--- Generating LP model Slave_GH
--- IEEE_9_BUS.gms(401) 3 Mb
--- LOOPS K = 1
---   3 rows  3 columns  5 non-zeroes
--- Executing CPLEX: elapsed 0:00:00.501

IBM ILOG CPLEX   24.1.3 r41464 Released Jul 26, 2013 VS8 x86/MS Windows       
Cplex 12.5.1.0

Reading data...
Starting Cplex...
Dual infeasible due to empty column 'p_GH(H001)'.
Presolve time = 0.00 sec. (0.00 ticks)
LP status(4): unbounded or infeasible
Cplex Time: 0.00sec (det. 0.00 ticks)
Presolve found the problem infeasible or unbounded.
Rerunning with presolve turned off.
Initializing dual steep norms . . .
LP status(2): unbounded
Cplex Time: 0.02sec (det. 0.00 ticks)
Dual infeasible or unbounded. Switching to primal to aid diagnosis.

Iteration           Objective            In Variable           Out Variable
     1 sI            0.000000   z_slave_GH_ind(H001)  eq_min_GH(H001) slack
Switched to steepest-edge.
LP status(2): unbounded
Cplex Time: 0.05sec (det. 0.00 ticks)

Model has an unbounded ray.
--- Restarting execution
--- IEEE_9_BUS.gms(401) 0 Mb
--- Reading solution for model Slave_GH
--- Executing after solve: elapsed 0:00:00.622
--- IEEE_9_BUS.gms(395) 3 Mb
--- Generating LP model Slave_Net
--- IEEE_9_BUS.gms(403) 3 Mb
--- LOOPS K = 1
---   19 rows  28 columns  64 non-zeroes
--- Executing CPLEX: elapsed 0:00:00.626

IBM ILOG CPLEX   24.1.3 r41464 Released Jul 26, 2013 VS8 x86/MS Windows       
Cplex 12.5.1.0

Reading data...
Starting Cplex...
Tried aggregator 1 time.
LP Presolve eliminated 19 rows and 28 columns.
All rows and columns eliminated.
Presolve time = 0.00 sec. (0.01 ticks)
LP status(1): optimal
Cplex Time: 0.00sec (det. 0.02 ticks)

Optimal solution found.
Objective :           0.000000

--- Restarting execution
--- IEEE_9_BUS.gms(403) 0 Mb
--- Reading solution for model Slave_Net
--- Executing after solve: elapsed 0:00:00.690
--- IEEE_9_BUS.gms(395) 3 Mb
--- Generating LP model Maestro
--- IEEE_9_BUS.gms(425) 3 Mb
--- LOOPS K = 1
---   5 rows  11 columns  15 non-zeroes
--- Executing CPLEX: elapsed 0:00:00.722

IBM ILOG CPLEX   24.1.3 r41464 Released Jul 26, 2013 VS8 x86/MS Windows       
Cplex 12.5.1.0

Reading data...
Starting Cplex...
Tried aggregator 1 time.
LP Presolve eliminated 5 rows and 11 columns.
All rows and columns eliminated.
Presolve time = 0.00 sec. (0.00 ticks)
LP status(1): optimal
Cplex Time: 0.00sec (det. 0.01 ticks)

Optimal solution found.
Objective :      634340.000000

--- Restarting execution
--- IEEE_9_BUS.gms(425) 0 Mb
--- Reading solution for model Maestro
--- Executing after solve: elapsed 0:00:00.788
--- IEEE_9_BUS.gms(395) 3 Mb
--- Generating QCP model Proyeccion
--- IEEE_9_BUS.gms(440) 5 Mb
--- LOOPS K = 1
---   7 rows  15 columns  26 non-zeroes
---   38 nl-code  9 nl-non-zeroes
--- IEEE_9_BUS.gms(440) 3 Mb
--- Executing CONOPT: elapsed 0:00:00.789
CONOPT 3         24.1.3 r41464 Released Jul 26, 2013 VS8 x86/MS Windows       
 
 
    C O N O P T 3   version 3.15L
    Copyright (C)   ARKI Consulting and Development A/S
                    Bagsvaerdvej 246 A
                    DK-2880 Bagsvaerd, Denmark
 
 
   Iter Phase Ninf   Infeasibility   RGmax    NSB   Step InItr MX OK
      0   0        1.1648100000E+07 (Input point)
                                Pre-triangular equations:        0
                                Post-triangular equations:       1
      1   0        0.0000000000E+00 (After pre-processing)
      2   0        0.0000000000E+00 (After scaling)
 
 ** Feasible solution. Value of objective =    11648100.0000
 
   Iter Phase Ninf     Objective     RGmax    NSB   Step InItr MX OK
     10   4        4.4193866864E+05 8.4E-08     5
 
 ** Optimal solution. Reduced gradient less than tolerance.
 
--- Restarting execution
--- IEEE_9_BUS.gms(440) 0 Mb
--- Reading solution for model Proyeccion
--- Executing after solve: elapsed 0:00:00.948
--- IEEE_9_BUS.gms(395) 3 Mb
--- Generating MIP model Slave_GT
--- IEEE_9_BUS.gms(399) 3 Mb
--- LOOPS K = 2
---   7 rows  7 columns  13 non-zeroes
---   2 discrete-columns
--- Executing CPLEX: elapsed 0:00:00.958

IBM ILOG CPLEX   24.1.3 r41464 Released Jul 26, 2013 VS8 x86/MS Windows       
Cplex 12.5.1.0

Reading data...
Starting Cplex...
Tried aggregator 1 time.
MIP Presolve eliminated 7 rows and 7 columns.
All rows and columns eliminated.
Presolve time = 0.00 sec. (0.00 ticks)

Root node processing (before b&c):
  Real time             =    0.00 sec. (0.01 ticks)
Sequential b&c:
  Real time             =    0.00 sec. (0.00 ticks)
                          ------------
Total (root+branch&cut) =    0.00 sec. (0.01 ticks)
MIP status(101): integer optimal solution
Cplex Time: 0.00sec (det. 0.01 ticks)
Fixing integer variables, and solving final LP...
Tried aggregator 1 time.
LP Presolve eliminated 7 rows and 7 columns.
All rows and columns eliminated.
Presolve time = 0.00 sec. (0.00 ticks)
Fixed MIP status(1): optimal
Cplex Time: 0.00sec (det. 0.00 ticks)

Proven optimal solution.

MIP Solution:        -4300.000000    (0 iterations, 0 nodes)
Final Solve:         -4300.000000    (0 iterations)

Best possible:       -4300.000000
Absolute gap:            0.000000
Relative gap:            0.000000

--- Restarting execution
--- IEEE_9_BUS.gms(399) 0 Mb
--- Reading solution for model Slave_GT
--- Executing after solve: elapsed 0:00:01.097
--- IEEE_9_BUS.gms(395) 3 Mb
--- Generating LP model Slave_GH
--- IEEE_9_BUS.gms(401) 3 Mb
--- LOOPS K = 2
---   3 rows  3 columns  5 non-zeroes
--- Executing CPLEX: elapsed 0:00:01.101

IBM ILOG CPLEX   24.1.3 r41464 Released Jul 26, 2013 VS8 x86/MS Windows       
Cplex 12.5.1.0

Reading data...
Starting Cplex...
Tried aggregator 1 time.
LP Presolve eliminated 3 rows and 3 columns.
All rows and columns eliminated.
Presolve time = 0.00 sec. (0.00 ticks)
LP status(1): optimal
Cplex Time: 0.01sec (det. 0.00 ticks)

Optimal solution found.
Objective :         -40.000000

--- Restarting execution
--- IEEE_9_BUS.gms(401) 0 Mb
--- Reading solution for model Slave_GH
--- Executing after solve: elapsed 0:00:01.173
--- IEEE_9_BUS.gms(395) 3 Mb
--- Generating LP model Slave_Net
--- IEEE_9_BUS.gms(403) 3 Mb
--- LOOPS K = 2
---   19 rows  28 columns  61 non-zeroes
--- Executing CPLEX: elapsed 0:00:01.189

IBM ILOG CPLEX   24.1.3 r41464 Released Jul 26, 2013 VS8 x86/MS Windows       
Cplex 12.5.1.0

Reading data...
Starting Cplex...
Tried aggregator 1 time.
LP Presolve eliminated 19 rows and 28 columns.
All rows and columns eliminated.
Presolve time = 0.00 sec. (0.01 ticks)
LP status(1): optimal
Cplex Time: 0.00sec (det. 0.02 ticks)

Optimal solution found.
Objective :     -139127.177070

--- Restarting execution
--- IEEE_9_BUS.gms(403) 0 Mb
--- Reading solution for model Slave_Net
--- Executing after solve: elapsed 0:00:01.255
--- IEEE_9_BUS.gms(395) 3 Mb
--- Generating LP model Maestro
--- IEEE_9_BUS.gms(425) 3 Mb
--- LOOPS K = 2
---   9 rows  11 columns  22 non-zeroes
--- Executing CPLEX: elapsed 0:00:01.258

IBM ILOG CPLEX   24.1.3 r41464 Released Jul 26, 2013 VS8 x86/MS Windows       
Cplex 12.5.1.0

Reading data...
Starting Cplex...
Tried aggregator 1 time.
LP Presolve eliminated 9 rows and 11 columns.
All rows and columns eliminated.
Presolve time = 0.02 sec. (0.00 ticks)
LP status(1): optimal
Cplex Time: 0.02sec (det. 0.01 ticks)

Optimal solution found.
Objective :      634340.000000

--- Restarting execution
--- IEEE_9_BUS.gms(425) 0 Mb
--- Reading solution for model Maestro
--- Executing after solve: elapsed 0:00:01.331
--- IEEE_9_BUS.gms(395) 3 Mb
--- Generating QCP model Proyeccion
--- IEEE_9_BUS.gms(440) 5 Mb
--- LOOPS K = 2
---   11 rows  15 columns  33 non-zeroes
---   35 nl-code  9 nl-non-zeroes
--- IEEE_9_BUS.gms(440) 3 Mb
--- Executing CONOPT: elapsed 0:00:01.334
CONOPT 3         24.1.3 r41464 Released Jul 26, 2013 VS8 x86/MS Windows       
 
 
    C O N O P T 3   version 3.15L
    Copyright (C)   ARKI Consulting and Development A/S
                    Bagsvaerdvej 246 A
                    DK-2880 Bagsvaerd, Denmark
 
 
   Iter Phase Ninf   Infeasibility   RGmax    NSB   Step InItr MX OK
      0   0        7.1609998221E+06 (Input point)
                                Pre-triangular equations:        0
                                Post-triangular equations:       1
      1   0        0.0000000000E+00 (After pre-processing)
      2   0        0.0000000000E+00 (After scaling)
 
 ** Feasible solution. Value of objective =    7602938.49073
 
   Iter Phase Ninf     Objective     RGmax    NSB   Step InItr MX OK
      9   4        1.3209914260E+06 4.4E-09     2
 
 ** Optimal solution. Reduced gradient less than tolerance.
 
--- Restarting execution
--- IEEE_9_BUS.gms(440) 0 Mb
--- Reading solution for model Proyeccion
--- Executing after solve: elapsed 0:00:01.452
--- IEEE_9_BUS.gms(395) 3 Mb
--- Generating MIP model Slave_GT
--- IEEE_9_BUS.gms(399) 3 Mb
--- LOOPS K = 3
---   7 rows  7 columns  13 non-zeroes
---   2 discrete-columns
--- Executing CPLEX: elapsed 0:00:01.456

IBM ILOG CPLEX   24.1.3 r41464 Released Jul 26, 2013 VS8 x86/MS Windows       
Cplex 12.5.1.0

Reading data...
Starting Cplex...
Tried aggregator 1 time.
MIP Presolve eliminated 7 rows and 7 columns.
All rows and columns eliminated.
Presolve time = 0.00 sec. (0.00 ticks)

Root node processing (before b&c):
  Real time             =    0.00 sec. (0.01 ticks)
Sequential b&c:
  Real time             =    0.00 sec. (0.00 ticks)
                          ------------
Total (root+branch&cut) =    0.00 sec. (0.01 ticks)
MIP status(101): integer optimal solution
Cplex Time: 0.00sec (det. 0.01 ticks)
Fixing integer variables, and solving final LP...
Tried aggregator 1 time.
LP Presolve eliminated 7 rows and 7 columns.
All rows and columns eliminated.
Presolve time = -0.00 sec. (0.00 ticks)
Fixed MIP status(1): optimal
Cplex Time: 0.00sec (det. 0.00 ticks)

Proven optimal solution.

MIP Solution:        -4300.000000    (0 iterations, 0 nodes)
Final Solve:         -4300.000000    (0 iterations)

Best possible:       -4300.000000
Absolute gap:            0.000000
Relative gap:            0.000000

--- Restarting execution
--- IEEE_9_BUS.gms(399) 0 Mb
--- Reading solution for model Slave_GT
--- Executing after solve: elapsed 0:00:01.580
--- IEEE_9_BUS.gms(395) 3 Mb
--- Generating LP model Slave_GH
--- IEEE_9_BUS.gms(401) 3 Mb
--- LOOPS K = 3
---   3 rows  3 columns  5 non-zeroes
--- Executing CPLEX: elapsed 0:00:01.583

IBM ILOG CPLEX   24.1.3 r41464 Released Jul 26, 2013 VS8 x86/MS Windows       
Cplex 12.5.1.0

Reading data...
Starting Cplex...
Tried aggregator 1 time.
LP Presolve eliminated 3 rows and 3 columns.
All rows and columns eliminated.
Presolve time = 0.00 sec. (0.00 ticks)
LP status(1): optimal
Cplex Time: 0.00sec (det. 0.00 ticks)

Optimal solution found.
Objective :         -40.000000

--- Restarting execution
--- IEEE_9_BUS.gms(401) 0 Mb
--- Reading solution for model Slave_GH
--- Executing after solve: elapsed 0:00:01.647
--- IEEE_9_BUS.gms(395) 3 Mb
--- Generating LP model Slave_Net
--- IEEE_9_BUS.gms(403) 3 Mb
--- LOOPS K = 3
---   19 rows  28 columns  61 non-zeroes
--- Executing CPLEX: elapsed 0:00:01.678

IBM ILOG CPLEX   24.1.3 r41464 Released Jul 26, 2013 VS8 x86/MS Windows       
Cplex 12.5.1.0

Reading data...
Starting Cplex...
Tried aggregator 1 time.
LP Presolve eliminated 19 rows and 28 columns.
All rows and columns eliminated.
Presolve time = 0.00 sec. (0.01 ticks)
LP status(1): optimal
Cplex Time: 0.00sec (det. 0.02 ticks)

Optimal solution found.
Objective :     -380401.824360

--- Restarting execution
--- IEEE_9_BUS.gms(403) 0 Mb
--- Reading solution for model Slave_Net
--- Executing after solve: elapsed 0:00:01.744
--- IEEE_9_BUS.gms(395) 3 Mb
--- Generating LP model Maestro
--- IEEE_9_BUS.gms(425) 3 Mb
--- LOOPS K = 3
---   13 rows  11 columns  29 non-zeroes
--- Executing CPLEX: elapsed 0:00:01.747

IBM ILOG CPLEX   24.1.3 r41464 Released Jul 26, 2013 VS8 x86/MS Windows       
Cplex 12.5.1.0

Reading data...
Starting Cplex...
Tried aggregator 1 time.
LP Presolve eliminated 13 rows and 11 columns.
All rows and columns eliminated.
Presolve time = 0.00 sec. (0.01 ticks)
LP status(1): optimal
Cplex Time: 0.00sec (det. 0.01 ticks)

Optimal solution found.
Objective :      634340.000000

--- Restarting execution
--- IEEE_9_BUS.gms(425) 0 Mb
--- Reading solution for model Maestro
--- Executing after solve: elapsed 0:00:01.820
--- IEEE_9_BUS.gms(499) 3 Mb
--- Putfile f_gen C:\nconvex-gams\IEEE 9 BUS\Resultados_Generacion.csv
--- Putfile f_price C:\nconvex-gams\IEEE 9 BUS\Resultados_Precios.csv
--- Putfile f_conv C:\nconvex-gams\IEEE 9 BUS\Historial_Convergencia.csv
*** Status: Normal completion
--- Job IEEE_9_BUS.gms Stop 02/01/26 19:36:04 elapsed 0:00:01.830
